; benchmark generated from python API
(set-info :status unknown)
(declare-fun W_S2_V2 () Bool)
(declare-fun W_S2_V1 () Bool)
(declare-fun DISJ_W_S1_R_S1 () Bool)
(declare-fun DISJ_W_S2_R_S1 () Bool)
(declare-fun R_E1_V4 () Bool)
(declare-fun W_S1_V4 () Bool)
(declare-fun R_E1_V5 () Bool)
(declare-fun W_S1_V5 () Bool)
(declare-fun W_S2_V5 () Bool)
(declare-fun W_S2_V3 () Bool)
(declare-fun R_S2_V4 () Bool)
(declare-fun R_S2_V5 () Bool)
(declare-fun R_S2_V2 () Bool)
(declare-fun R_S2_V3 () Bool)
(declare-fun R_S2_V1 () Bool)
(declare-fun R_S1_V4 () Bool)
(declare-fun R_S1_V5 () Bool)
(declare-fun R_S1_V2 () Bool)
(declare-fun R_S1_V3 () Bool)
(declare-fun R_S1_V1 () Bool)
(declare-fun R_E1_V2 () Bool)
(declare-fun DISJ_W_S2_R_E1 () Bool)
(declare-fun DISJ_W_S2_R_S2 () Bool)
(declare-fun DISJ_W_S1_W_S2 () Bool)
(declare-fun R_E1_V3 () Bool)
(declare-fun DISJ_W_S1_R_S2 () Bool)
(declare-fun W_S2_V4 () Bool)
(declare-fun W_S1_V3 () Bool)
(declare-fun W_S1_V2 () Bool)
(declare-fun W_S1_V1 () Bool)
(declare-fun R_E1_V1 () Bool)
(declare-fun DISJ_W_S1_R_E1 () Bool)
(assert
 (let (($x2405 (not (and (not W_S2_V1) (not W_S2_V2)))))
 (let (($x1768 (not (and (not W_S2_V2) DISJ_W_S2_R_S1 DISJ_W_S1_R_S1))))
 (let (($x2867 (not (and W_S1_V4 R_E1_V4))))
 (let (($x5844 (not (and W_S1_V5 R_E1_V5))))
 (let (($x3479 (forall ((V3_0 Int) )(forall ((V2_0 Int) )(forall ((V5_0 Int) )(forall ((V4_0 Int) )(forall ((MW_S1_V1 Bool) )(forall ((MW_S1_V3 Bool) )(forall ((MW_S1_V2 Bool) )(forall ((MW_S1_V5 Bool) )(forall ((MW_S1_V4 Bool) )(forall ((MW_S2_V1 Bool) )(forall ((MW_S2_V3 Bool) )(forall ((MW_S2_V2 Bool) )(forall ((MW_S2_V5 Bool) )(forall ((MW_S2_V4 Bool) )(forall ((S1_V1_!1516 Int) )(forall ((S1_V1_!1527 Int) )(forall ((S1_V1_!1532 Int) )(forall ((S2_V5_!1524 Int) )(forall ((S2_V5_!1541 Int) )(forall ((S1_V3_!1517 Int) )(forall ((S1_V3_!1528 Int) )(forall ((S1_V3_!1533 Int) )(forall ((S1_V2_!1518 Int) )(forall ((S1_V2_!1529 Int) )(forall ((S1_V2_!1534 Int) )(forall ((E1_!1515 Int) )(forall ((E1_!1526 Int) )(forall ((E1_!1537 Int) )(forall ((S2_V4_!1525 Int) )(forall ((S2_V4_!1542 Int) )(forall ((S1_V5_!1519 Int) )(forall ((S1_V5_!1530 Int) )(forall ((S1_V5_!1535 Int) )(forall ((S2_V1_!1521 Int) )(forall ((S2_V1_!1538 Int) )(forall ((S1_V4_!1520 Int) )(forall ((S1_V4_!1531 Int) )(forall ((S1_V4_!1536 Int) )(forall ((S2_V2_!1523 Int) )(forall ((S2_V2_!1540 Int) )(forall ((S2_V3_!1522 Int) )(forall ((S2_V3_!1539 Int) )(let (($x4658 (= (ite MW_S2_V4 S2_V4_!1525 (ite MW_S1_V4 S1_V4_!1520 V4_0)) (ite MW_S2_V4 S2_V4_!1542 (ite MW_S1_V4 S1_V4_!1536 V4_0)))))
 (let (($x2506 (= (ite MW_S2_V5 S2_V5_!1524 (ite MW_S1_V5 S1_V5_!1519 V5_0)) (ite MW_S2_V5 S2_V5_!1541 (ite MW_S1_V5 S1_V5_!1535 V5_0)))))
 (let ((?x3446 (ite MW_S1_V2 S1_V2_!1534 V2_0)))
 (let ((?x2206 (ite MW_S2_V2 S2_V2_!1540 ?x3446)))
 (let ((?x5352 (ite MW_S1_V2 S1_V2_!1518 V2_0)))
 (let ((?x1443 (ite MW_S2_V2 S2_V2_!1523 ?x5352)))
 (let (($x544 (= (ite MW_S2_V3 S2_V3_!1522 (ite MW_S1_V3 S1_V3_!1517 V3_0)) (ite MW_S2_V3 S2_V3_!1539 (ite MW_S1_V3 S1_V3_!1533 V3_0)))))
 (let (($x1184 (and (= (ite MW_S2_V1 S2_V1_!1521 (ite MW_S1_V1 S1_V1_!1516 E1_!1515)) (ite MW_S2_V1 S2_V1_!1538 E1_!1537)) $x544 (= ?x1443 ?x2206) $x2506 $x4658)))
 (let (($x340 (>= (ite MW_S1_V1 S1_V1_!1532 (+ 1 (ite MW_S1_V1 S1_V1_!1527 E1_!1526))) (+ (- 1) ?x3446))))
 (let (($x3725 (and (not (<= V2_0 E1_!1515)) (>= (ite MW_S2_V1 S2_V1_!1521 (ite MW_S1_V1 S1_V1_!1516 E1_!1515)) (+ (- 1) ?x1443)) (not (<= V2_0 E1_!1526)) (not (<= (ite MW_S1_V2 S1_V2_!1529 V2_0) (+ 1 (ite MW_S1_V1 S1_V1_!1527 E1_!1526)))) $x340 (not (<= ?x3446 E1_!1537)) (>= (ite MW_S2_V1 S2_V1_!1538 E1_!1537) (+ (- 1) ?x2206)))))
 (let (($x3797 (= S2_V3_!1539 S2_V3_!1522)))
 (let (($x3674 (and (or (not R_S2_V1) (= E1_!1537 (ite MW_S1_V1 S1_V1_!1516 E1_!1515))) (or (not R_S2_V3) (= (ite MW_S1_V3 S1_V3_!1533 V3_0) (ite MW_S1_V3 S1_V3_!1517 V3_0))) (or (not R_S2_V2) (= ?x3446 ?x5352)) (or (not R_S2_V5) (= (ite MW_S1_V5 S1_V5_!1535 V5_0) (ite MW_S1_V5 S1_V5_!1519 V5_0))) (or (not R_S2_V4) (= (ite MW_S1_V4 S1_V4_!1536 V4_0) (ite MW_S1_V4 S1_V4_!1520 V4_0))))))
 (let (($x3226 (not $x3674)))
 (let (($x3994 (= S1_V4_!1536 S1_V4_!1531)))
 (let (($x3270 (not R_S1_V4)))
 (let (($x5617 (or $x3270 (= (ite MW_S1_V4 S1_V4_!1531 V4_0) V4_0))))
 (let (($x1175 (not R_S1_V5)))
 (let (($x4220 (or $x1175 (= (ite MW_S1_V5 S1_V5_!1530 V5_0) V5_0))))
 (let (($x1030 (not R_S1_V2)))
 (let (($x4064 (or $x1030 (= (ite MW_S1_V2 S1_V2_!1529 V2_0) V2_0))))
 (let (($x4082 (not R_S1_V3)))
 (let (($x4563 (or $x4082 (= (ite MW_S1_V3 S1_V3_!1528 V3_0) V3_0))))
 (let (($x2136 (and (or (not R_S1_V1) (= (ite MW_S1_V1 S1_V1_!1527 E1_!1526) (+ (- 1) E1_!1526))) $x4563 $x4064 $x4220 $x5617)))
 (let (($x85 (not $x2136)))
 (let (($x4651 (and (or (not R_S1_V1) (= (ite MW_S1_V1 S1_V1_!1527 E1_!1526) (+ (- 1) E1_!1515))) $x4563 $x4064 $x4220 $x5617)))
 (let (($x2075 (not $x4651)))
 (let (($x5024 (or $x3270 (= V4_0 (ite MW_S1_V4 S1_V4_!1531 V4_0)))))
 (let (($x794 (or $x1175 (= V5_0 (ite MW_S1_V5 S1_V5_!1530 V5_0)))))
 (let (($x3173 (or $x1030 (= V2_0 (ite MW_S1_V2 S1_V2_!1529 V2_0)))))
 (let (($x3944 (or $x4082 (= V3_0 (ite MW_S1_V3 S1_V3_!1528 V3_0)))))
 (let (($x1511 (and (or (not R_S1_V1) (= E1_!1526 (+ 1 (ite MW_S1_V1 S1_V1_!1527 E1_!1526)))) $x3944 $x3173 $x794 $x5024)))
 (let (($x1788 (and (or (not R_S1_V1) (= E1_!1515 (+ 1 (ite MW_S1_V1 S1_V1_!1527 E1_!1526)))) $x3944 $x3173 $x794 $x5024)))
 (let (($x2939 (not $x1788)))
 (let (($x5511 (= E1_!1537 E1_!1526)))
 (let (($x5211 (and (or (not R_E1_V2) (= ?x3446 V2_0)) (or (not R_E1_V5) (= (ite MW_S1_V5 S1_V5_!1535 V5_0) V5_0)) (or (not R_E1_V4) (= (ite MW_S1_V4 S1_V4_!1536 V4_0) V4_0)))))
 (let (($x1841 (and (or (not R_E1_V2) (= V2_0 ?x3446)) (or (not R_E1_V5) (= V5_0 (ite MW_S1_V5 S1_V5_!1535 V5_0))) (or (not R_E1_V4) (= V4_0 (ite MW_S1_V4 S1_V4_!1536 V4_0))))))
 (let (($x3158 (= E1_!1515 E1_!1526)))
 (let (($x6035 (and (or (not (or (not R_S1_V1) $x3158)) (= S1_V1_!1516 S1_V1_!1527)) (or $x2939 (= S1_V1_!1516 S1_V1_!1532)) (or $x85 (= S1_V1_!1532 S1_V1_!1527)) (or $x3226 (= S2_V5_!1541 S2_V5_!1524)) (or (not (or (not R_S1_V1) $x3158)) (= S1_V3_!1517 S1_V3_!1528)) (or $x2075 (= S1_V3_!1533 S1_V3_!1517)) (or $x85 (= S1_V3_!1533 S1_V3_!1528)) (or (not (or (not R_S1_V1) $x3158)) (= S1_V2_!1518 S1_V2_!1529)) (or $x2075 (= S1_V2_!1534 S1_V2_!1518)) (or $x85 (= S1_V2_!1534 S1_V2_!1529)) $x3158 (or (not $x1841) (= E1_!1515 E1_!1537)) (or (not $x5211) $x5511) (or $x3226 (= S2_V4_!1542 S2_V4_!1525)) (or $x2939 (= S1_V5_!1519 S1_V5_!1535)) (or (not (or (not R_S1_V1) (= E1_!1526 E1_!1515))) (= S1_V5_!1530 S1_V5_!1519)) (or (not $x1511) (= S1_V5_!1530 S1_V5_!1535)) (or $x3226 (= S2_V1_!1538 S2_V1_!1521)) (or (not (or (not R_S1_V1) (= E1_!1526 E1_!1515))) (= S1_V4_!1531 S1_V4_!1520)) (or $x2075 (= S1_V4_!1536 S1_V4_!1520)) (or $x85 $x3994) (or $x3226 (= S2_V2_!1540 S2_V2_!1523)) (or $x3226 $x3797) (not MW_S1_V1) (not MW_S1_V2) (or (not MW_S1_V5) W_S1_V5) (or (not MW_S1_V4) W_S1_V4) (or (not MW_S2_V1) W_S2_V1) (or (not MW_S2_V3) W_S2_V3) (or (not MW_S2_V2) W_S2_V2) (or (not MW_S2_V5) W_S2_V5))))
 (or (not $x6035) (not $x3725) $x1184))))))))))))))))))))))))))))))))))))))))
 )
 )
 )
 )
 )
 )
 )
 )
 )
 )
 )
 )
 )
 )
 )
 )
 )
 )
 )
 )
 )
 )
 )
 )
 )
 )
 )
 )
 )
 )
 )
 )
 )
 )
 )
 )
 )
 )
 )
 )
 )
 ))
 (let (($x4068 (not (or (and W_S2_V2 R_E1_V2) (and W_S2_V5 R_E1_V5) R_E1_V4))))
 (let (($x3685 (= DISJ_W_S2_R_E1 $x4068)))
 (let (($x1021 (and W_S2_V5 R_S2_V5)))
 (let (($x2034 (and W_S2_V2 R_S2_V2)))
 (let (($x821 (and W_S2_V3 R_S2_V3)))
 (let (($x5168 (and W_S2_V1 R_S2_V1)))
 (let (($x1763 (= DISJ_W_S2_R_S2 (not (or $x5168 $x821 $x2034 $x1021 R_S2_V4)))))
 (let (($x2064 (and W_S2_V5 R_S1_V5)))
 (let (($x1605 (and W_S2_V2 R_S1_V2)))
 (let (($x671 (and W_S2_V3 R_S1_V3)))
 (let (($x4588 (and W_S2_V1 R_S1_V1)))
 (let (($x3396 (= DISJ_W_S2_R_S1 (not (or $x4588 $x671 $x1605 $x2064 R_S1_V4)))))
 (let (($x4977 (= DISJ_W_S1_W_S2 (not (or W_S2_V3 (and W_S1_V5 W_S2_V5) W_S1_V4)))))
 (let (($x1277 (not R_E1_V3)))
 (let (($x5123 (not (or R_S2_V3 (and W_S1_V5 R_S2_V5) (and W_S1_V4 R_S2_V4)))))
 (let (($x1385 (= DISJ_W_S1_R_S2 $x5123)))
 (let (($x4281 (not (or R_S1_V3 (and W_S1_V5 R_S1_V5) (and W_S1_V4 R_S1_V4)))))
 (let (($x4729 (= DISJ_W_S1_R_S1 $x4281)))
 (let (($x347 (not W_S1_V2)))
 (let (($x3913 (not W_S1_V1)))
 (let (($x4865 (not R_E1_V1)))
 (let (($x1345 (and DISJ_W_S1_R_E1 $x4865 $x3913 $x347 W_S1_V3 W_S2_V4 $x4729 $x1385 $x1277 $x4977 $x3396 $x1763 $x3685 $x3479 $x5844 $x2867)))
 (and $x1345 $x1768 $x2405)))))))))))))))))))))))))))))
(check-sat)
